58
50
42
20
45
51
69
49
46
21
23
26
61
72
44
24
40
39
31
19
18
4
56
47
64
53
27
8
36
11
73
12
33
15
13
74
75
37
6
22
62
70
43
71
55
63
66
54
60
0
3
17
9
5
41
68
38
28
29
52
10
14
7
32
48
35
67
25
34
65
2
57
30
16
59
